Res/generated_sat_002.cnf
c Hard 3-SAT instance at phase transition threshold
c Variables: 11
c Clauses: 46
c Ratio: 4.26 (critical threshold)
p cnf 11 46
9 5 3 0
-2 4 -8 0
10 7 8 0
-9 10 6 0
-7 8 4 0
-7 3 10 0
-5 4 9 0
-2 -3 -11 0
8 7 9 0
11 5 -3 0
8 1 11 0
-6 -8 7 0
1 -3 -5 0
1 -7 5 0
6 -11 3 0
6 10 4 0
-11 3 4 0
-4 -7 -2 0
10 -5 -1 0
9 10 4 0
-3 9 -4 0
-8 -7 1 0
-8 5 4 0
11 -10 7 0
11 -9 -8 0
-9 -3 -4 0
6 1 3 0
8 7 -6 0
9 -1 -11 0
-5 -4 -1 0
-10 1 -9 0
7 -6 -11 0
-5 7 8 0
10 -3 9 0
-1 2 -8 0
7 11 -10 0
4 2 9 0
-4 2 -9 0
-3 -5 -10 0
-7 -1 -9 0
3 -4 2 0
10 1 -4 0
6 4 1 0
-8 -4 -3 0
-10 7 1 0
-9 -11 3 0