Res/generated_sat_002.cnf.sol
c Solution pour ../Res/generated_sat_002.cnf
c Temps: 0.001s
c Noeuds: 2464
v 1 -2 3 -4 -5 -6 -7 -8 9 10 11 0
